BEGIN IONS
INCHIKEY=PVVBOXUQVSZBMK-UHFFFAOYSA-N
FORMULA=C2H4F4N2
MW=132
CAS#=15403-23-3;  NIST#: 284323
DB#=10
COMMENTS=A.Pleshkova, Nesmeyanov Inst.Org.Elem.Cpds, Moscow
NUM_PEAKS=17
COMPOUND_NAME=1,2-Bis(difluoroamino)ethane
PARENT_MASS=132.031061
15.0 999.0 
16.0 12.0 
27.0 257.0 
28.0 646.0 
29.0 15.0 
33.0 341.0 
34.0 4.0 
42.0 179.0 
43.0 5.0 
46.0 289.0 
47.0 4.0 
66.0 422.0 
67.0 6.0 
80.0 174.0 
81.0 4.0 
132.0 23.0 
133.0 1.0 
END IONS

