Name: Hydrogen
InChIKey: UFHFLCQGNIYNRP-UHFFFAOYSA-N
Synon: Dihydrogen
Synon: o-Hydrogen
Synon: p-Hydrogen
Synon: Molecular hydrogen
Synon: H2
Synon: UN 1049
Synon: UN 1966
Formula: H2
MW: 2
ExactMass: 2.01565006
CAS#: 1333-74-0;  NIST#: 245692
DB#: 1
Comments: American Petroleum Institute Research Project 44
Num Peaks: 2
1 21; 2 999; 

Name: Deuterium
InChIKey: UFHFLCQGNIYNRP-VVKOMZTBSA-N
Synon: D2
Synon: UN 1957
Formula: D2
MW: 4
ExactMass: 4.02820355
CAS#: 7782-39-0;  NIST#: 61316
DB#: 2
Comments: D.HENNEBERG, MAX-PLANCK INSTITUTE, MULHEIM, WEST GERMANY
Num Peaks: 2
2 15; 4 999; 

Name: Diazirine
InChIKey: GKVDXUXIAHWQIK-UHFFFAOYSA-N
Formula: CH2N2
MW: 42
ExactMass: 42.0217981
NIST#: 305841
DB#: 3
Comments: A.Pleshkova, Nesmeyanov Inst.Org.Elem.Cpds, Moscow
Num Peaks: 12
12 108; 13 229; 14 999; 15 22; 26 18; 
27 58; 28 178; 29 23; 40 18; 41 108; 
42 431; 43 8; 

Name: Methane, diazo-
InChIKey: YXHKONLOYHBTNS-UHFFFAOYSA-N
Synon: Azimethylene
Synon: Diazomethane
Synon: Acomethylene
Synon: Diazirine
Synon: Diazonium methylide
Formula: CH2N2
MW: 42
ExactMass: 42.0217981
CAS#: 334-88-3;  NIST#: 57
DB#: 4
Num Peaks: 12
12 110; 13 220; 14 999; 15 25; 26 12; 
27 58; 28 179; 29 20; 40 22; 41 110; 
42 425; 43 11; 

Name: Ketene
InChIKey: CCGKOQOJPYTBIH-UHFFFAOYSA-N
Synon: Ethenone
Synon: Carbomethene
Synon: CH2CO
Synon: Keto-ethylene
Synon: Ethylenone  #
Retention_index: StdNP=287/0/2
Formula: C2H2O
MW: 42
ExactMass: 42.0105646
CAS#: 463-51-4;  NIST#: 55
DB#: 5
Num Peaks: 19
12 125; 13 131; 14 999; 15 12; 16 10; 
20 1; 21 18; 24 44; 25 58; 26 16; 
27 1; 28 113; 29 68; 30 1; 40 51; 
41 265; 42 939; 43 21; 44 1; 

Name: (4-(4-Chlorphenyl)-3-morpholino-pyrrol-2-yl)-butenedioic acid, dimethyl ester
InChIKey: PNYUDNYAXSEACV-RVDMUPIBSA-N
Synon: Dimethyl (2E)-2-[4-(4-chlorophenyl)-3-(4-morpholinyl)-1H-pyrrol-2-yl]-2-butenedioate  #
Formula: C20H21ClN2O5
MW: 404
ExactMass: 404.1139
CAS#: 164221-37-8;  NIST#: 286647
DB#: 6
Comments: Humboldt-Universitat zu Berlin, Department of Chemistry, Analytical Group
Num Peaks: 349
12 12; 13 7; 14 28; 15 999; 16 57; 
17 302; 18 975; 19 8; 25 5; 26 26; 
27 142; 28 398; 29 239; 30 49; 31 100; 
32 20; 33 27; 35 4; 36 19; 38 31; 
39 100; 40 53; 41 176; 42 99; 43 122; 
44 117; 45 155; 46 9; 47 7; 49 6; 
50 28; 51 59; 52 72; 53 63; 54 43; 
55 66; 56 55; 57 70; 59 404; 60 21; 
61 12; 62 21; 63 47; 64 27; 65 45; 
66 20; 67 46; 68 15; 69 43; 70 29; 
71 24; 72 19; 73 21; 74 25; 75 79; 
76 40; 77 47; 78 26; 79 14; 80 18; 
81 20; 82 64; 84 144; 85 43; 86 29; 
87 31; 88 36; 89 70; 90 31; 91 31; 
92 16; 93 12; 94 14; 96 100; 98 18; 
99 52; 100 52; 101 100; 102 71; 103 51; 
104 25; 105 20; 106 9; 107 12; 108 18; 
110 135; 111 58; 112 38; 113 114; 114 87; 
115 80; 116 40; 117 38; 118 15; 119 15; 
120 21; 121 20; 122 11; 123 73; 124 52; 
125 68; 126 92; 127 115; 128 96; 129 37; 
130 16; 131 13; 132 21; 133 13; 134 15; 
135 18; 136 166; 137 111; 138 135; 139 218; 
140 166; 141 116; 142 59; 143 36; 144 11; 
145 15; 146 9; 147 14; 148 29; 149 83; 
150 47; 151 73; 152 89; 153 62; 154 42; 
155 28; 156 32; 157 45; 158 14; 159 8; 
160 14; 161 21; 162 46; 163 46; 164 165; 
165 136; 166 159; 167 80; 168 45; 169 18; 
170 10; 171 21; 172 12; 173 86; 174 40; 
175 43; 176 32; 177 41; 178 37; 179 74; 
180 56; 181 44; 182 17; 183 8; 184 3; 
185 6; 186 13; 187 20; 188 28; 189 27; 
190 45; 191 333; 192 578; 193 212; 194 67; 
195 40; 196 9; 197 5; 198 12; 199 15; 
200 96; 201 59; 202 55; 203 62; 204 35; 
205 98; 206 104; 207 86; 208 50; 209 14; 
210 5; 211 3; 212 8; 213 21; 214 49; 
215 52; 216 53; 217 43; 218 49; 219 87; 
220 81; 221 53; 222 21; 223 9; 224 6; 
225 27; 226 83; 227 322; 228 244; 229 202; 
230 98; 231 39; 232 17; 233 14; 234 18; 
235 10; 236 9; 237 12; 238 7; 239 20; 
240 31; 241 79; 242 59; 243 94; 244 40; 
245 34; 246 10; 247 14; 248 12; 249 9; 
250 9; 251 12; 252 23; 253 34; 254 129; 
255 207; 256 113; 257 123; 258 39; 259 27; 
260 23; 261 15; 262 11; 263 10; 264 10; 
265 6; 266 9; 267 13; 268 11; 269 22; 
270 18; 271 43; 272 35; 273 23; 274 13; 
275 7; 276 5; 277 4; 278 6; 279 15; 
280 12; 281 11; 282 6; 283 27; 284 31; 
285 177; 286 138; 287 190; 288 77; 289 50; 
290 12; 291 4; 292 2; 293 1; 294 1; 
295 6; 296 8; 297 6; 298 6; 299 238; 
300 52; 301 89; 302 23; 303 15; 304 5; 
305 4; 306 0; 308 0; 309 2; 310 15; 
311 13; 312 14; 313 132; 314 31; 315 72; 
316 28; 317 19; 318 14; 319 6; 320 7; 
321 2; 322 3; 323 0; 324 0; 325 1; 
326 0; 327 3; 328 3; 329 26; 330 10; 
331 285; 332 55; 333 96; 334 17; 335 3; 
336 0; 339 3; 340 8; 341 6; 342 4; 
343 27; 345 963; 346 202; 347 354; 348 71; 
349 9; 350 1; 354 1; 355 0; 356 0; 
357 7; 358 2; 359 3; 360 0; 361 1; 
369 1; 370 0; 371 5; 372 9; 373 37; 
374 12; 375 16; 376 3; 377 1; 389 3; 
390 0; 391 1; 402 2; 404 447; 405 108; 
406 178; 407 37; 408 4; 409 0; 

Name: 1-Methyl-5-nitropyrazole
InChIKey: COVPJOWITGLAKX-UHFFFAOYSA-N
Synon: 1-Methyl-5-nitro-1H-pyrazole  #
Retention_index: SemiStdNP=1061
Formula: C4H5N3O2
MW: 127
ExactMass: 127.0381765
CAS#: 54210-33-2;  NIST#: 460697
DB#: 7
Comments: V.A.Korolev, IOC RAS, Moscow, Russia
Num Peaks: 33
13 0; 14 42; 15 999; 25 17; 26 276; 
27 967; 28 959; 29 15; 30 345; 31 58; 
37 4; 38 187; 39 152; 40 162; 41 3; 
42 36; 43 243; 46 24; 51 31; 52 674; 
53 417; 54 401; 55 57; 66 20; 68 60; 
80 25; 97 1; 98 193; 99 19; 110 212; 
111 13; 127 251; 128 14; 

Name: 1H-1,2,4-Triazol-5-amine, 3-bromo-N,N-dimethyl-
InChIKey: OWKPLCCVKXABQF-UHFFFAOYSA-N
Retention_index: SemiStdNP=1691
Formula: C4H7BrN4
MW: 190
ExactMass: 189.985408
NIST#: 460857
DB#: 8
Comments: V.A.Korolev, IOC RAS, Moscow, Russia
Num Peaks: 85
12 3; 13 7; 14 32; 15 999; 16 7; 
25 1; 26 15; 27 57; 28 420; 29 188; 
30 112; 31 3; 35 5; 37 1; 38 43; 
39 36; 40 87; 41 62; 42 335; 43 142; 
44 292; 45 2; 52 1; 53 24; 54 23; 
55 64; 56 79; 57 7; 66 1; 67 72; 
68 69; 69 159; 70 47; 71 83; 72 0; 
73 0; 78 0; 79 6; 80 10; 81 17; 
82 19; 83 2; 84 1; 91 2; 93 2; 
95 18; 96 4; 97 0; 105 0; 106 7; 
108 6; 109 9; 111 25; 112 1; 119 1; 
120 13; 121 4; 122 13; 123 4; 134 1; 
135 11; 137 11; 145 0; 147 7; 148 33; 
149 10; 150 32; 151 2; 160 2; 161 223; 
162 19; 163 217; 164 16; 173 1; 174 1; 
175 281; 176 19; 177 279; 178 19; 181 0; 
189 157; 190 324; 191 172; 192 324; 193 22; 

Name: N,N-Dimethyl-4-(1,2,4-oxadiazol-3-yl)-1,2,5-oxadiazol-3-amine
InChIKey: ASTNYHRQIBTGNO-UHFFFAOYSA-N
Retention_index: SemiStdNP=1488
Formula: C6H7N5O2
MW: 181
ExactMass: 181.059975
NIST#: 436977
DB#: 9
Comments: V.A.Korolev, Moscow, Russia
Num Peaks: 71
12 21; 13 16; 14 70; 15 999; 16 23; 
24 2; 25 2; 26 40; 27 157; 28 728; 
29 466; 30 418; 37 1; 38 55; 39 37; 
40 90; 41 108; 42 352; 43 135; 44 55; 
50 4; 51 21; 52 65; 53 77; 54 59; 
55 97; 56 529; 57 24; 58 6; 64 3; 
65 13; 66 31; 67 191; 68 44; 69 204; 
70 43; 71 6; 72 21; 77 23; 78 4; 
79 8; 80 12; 81 26; 82 157; 83 13; 
84 7; 85 26; 86 151; 87 1; 93 10; 
94 7; 95 5; 96 4; 97 0; 106 1; 
108 21; 110 103; 111 6; 112 1; 123 3; 
124 1; 136 3; 137 23; 138 33; 139 3; 
151 19; 152 104; 153 9; 180 33; 181 111; 
182 4; 

Name: 1,2-Bis(difluoroamino)ethane
InChIKey: PVVBOXUQVSZBMK-UHFFFAOYSA-N
Formula: C2H4F4N2
MW: 132
ExactMass: 132.031061
CAS#: 15403-23-3;  NIST#: 284323
DB#: 10
Comments: A.Pleshkova, Nesmeyanov Inst.Org.Elem.Cpds, Moscow
Num Peaks: 17
15 999; 16 12; 27 257; 28 646; 29 15; 
33 341; 34 4; 42 179; 43 5; 46 289; 
47 4; 66 422; 67 6; 80 174; 81 4; 
132 23; 133 1; 
